service_id,monday,tuesday,wednesday,thursday,friday,saturday,sunday,start_date,end_date
1111100-1,1,1,1,1,1,0,0,20250731,20250813
1111111-1,1,1,1,1,1,1,1,20250731,20250813
1111100-2,1,1,1,1,1,0,0,20250731,20250813
0000010-1,0,0,0,0,0,1,0,20250802,20250809
0000011-1,0,0,0,0,0,1,1,20250802,20250810
0000010-2,0,0,0,0,0,1,0,20250802,20250802
1111111-2,1,1,1,1,1,1,1,20250802,20250810
1111111-3,1,1,1,1,1,1,1,20250802,20250808
0000011-2,0,0,0,0,0,1,1,20250802,20250803
0000001-1,0,0,0,0,0,0,1,20250803,20250810
0000001-2,0,0,0,0,0,0,1,20250803,20250803
1111100-3,1,1,1,1,1,0,0,20250804,20250808
0000011-3,0,0,0,0,0,1,1,20250809,20250810
1111100-4,1,1,1,1,1,0,0,20250812,20250812
1111110-1,1,1,1,1,1,1,0,20250731,20250813
1111101-1,1,1,1,1,1,0,1,20250731,20250813
1111100-5,1,1,1,1,1,0,0,20250731,20250813
1111111-4,1,1,1,1,1,1,1,20250731,20250813
1111111-5,1,1,1,1,1,1,1,20250731,20250813
1111100-6,1,1,1,1,1,0,0,20250731,20250801
1111111-6,1,1,1,1,1,1,1,20250731,20250813
1111100-7,1,1,1,1,1,0,0,20250731,20250808
1111100-8,1,1,1,1,1,0,0,20250731,20250813
1111111-7,1,1,1,1,1,1,1,20250731,20250813
1111111-8,1,1,1,1,1,1,1,20250731,20250813
1111111-9,1,1,1,1,1,1,1,20250802,20250813
0000011-4,0,0,0,0,0,1,1,20250802,20250810
0000011-5,0,0,0,0,0,1,1,20250802,20250810
1111111-10,1,1,1,1,1,1,1,20250802,20250813
1111111-11,1,1,1,1,1,1,1,20250802,20250812
1111101-2,1,1,1,1,1,0,1,20250803,20250810
0000011-6,0,0,0,0,0,1,1,20250803,20250810
1111100-9,1,1,1,1,1,0,0,20250804,20250813
1111100-10,1,1,1,1,1,0,0,20250805,20250805
0000010-3,0,0,0,0,0,1,0,20250809,20250809
0000001-3,0,0,0,0,0,0,1,20250810,20250810
1111100-11,1,1,1,1,1,0,0,20250811,20250813
1111100-12,1,1,1,1,1,0,0,20250731,20250804
1111111-12,1,1,1,1,1,1,1,20250731,20250804
1111111-13,1,1,1,1,1,1,1,20250731,20250810
1111111-14,1,1,1,1,1,1,1,20250731,20250808
1111111-15,1,1,1,1,1,1,1,20250731,20250803
1111100-13,1,1,1,1,1,0,0,20250731,20250813
1111111-16,1,1,1,1,1,1,1,20250802,20250813
1111100-14,1,1,1,1,1,0,0,20250731,20250813
1111111-17,1,1,1,1,1,1,1,20250804,20250813
1111100-15,1,1,1,1,1,0,0,20250804,20250813
1111111-18,1,1,1,1,1,1,1,20250802,20250813
0000011-7,0,0,0,0,0,1,1,20250802,20250810
0000010-4,0,0,0,0,0,1,0,20250802,20250809
1111111-19,1,1,1,1,1,1,1,20250809,20250813
0000001-4,0,0,0,0,0,0,1,20250803,20250810
1111111-20,1,1,1,1,1,1,1,20250731,20250813
1111100-16,1,1,1,1,1,0,0,20250731,20250731
1111100-17,1,1,1,1,1,0,0,20250731,20250813
1111100-18,1,1,1,1,1,0,0,20250731,20250813
1111100-19,1,1,1,1,1,0,0,20250801,20250813
1111100-20,1,1,1,1,1,0,0,20250731,20250813
1111100-21,1,1,1,1,1,0,0,20250731,20250805
1111111-21,1,1,1,1,1,1,1,20250731,20250805
1111100-22,1,1,1,1,1,0,0,20250731,20250813
1111100-23,1,1,1,1,1,0,0,20250731,20250813
1111001-1,1,1,1,1,0,0,1,20250731,20250813
1111100-24,1,1,1,1,1,0,0,20250731,20250813
1111100-25,1,1,1,1,1,0,0,20250731,20250813
1111100-26,1,1,1,1,1,0,0,20250731,20250813
1111100-27,1,1,1,1,1,0,0,20250731,20250813
1111111-22,1,1,1,1,1,1,1,20250731,20250813
1111100-28,1,1,1,1,1,0,0,20250731,20250813
1111100-29,1,1,1,1,1,0,0,20250731,20250813
1111100-30,1,1,1,1,1,0,0,20250731,20250813
1111100-31,1,1,1,1,1,0,0,20250731,20250813
1111111-23,1,1,1,1,1,1,1,20250731,20250813
1111000-1,1,1,1,1,0,0,0,20250731,20250813
1111111-24,1,1,1,1,1,1,1,20250731,20250810
1111100-32,1,1,1,1,1,0,0,20250801,20250813
1111111-25,1,1,1,1,1,1,1,20250801,20250813
0000110-1,0,0,0,0,1,1,0,20250801,20250809
1111100-33,1,1,1,1,1,0,0,20250801,20250801
1111110-2,1,1,1,1,1,1,0,20250731,20250813
1111100-34,1,1,1,1,1,0,0,20250801,20250813
1111100-35,1,1,1,1,1,0,0,20250731,20250813
1111100-36,1,1,1,1,1,0,0,20250731,20250801
1111110-3,1,1,1,1,1,1,0,20250801,20250813
0000011-8,0,0,0,0,0,1,1,20250802,20250802
0000011-9,0,0,0,0,0,1,1,20250802,20250810
1111100-37,1,1,1,1,1,0,0,20250801,20250813
1111100-38,1,1,1,1,1,0,0,20250804,20250804
1111100-39,1,1,1,1,1,0,0,20250805,20250813
1111100-40,1,1,1,1,1,0,0,20250806,20250813
1111100-41,1,1,1,1,1,0,0,20250731,20250813
1111111-26,1,1,1,1,1,1,1,20250806,20250813
1111100-42,1,1,1,1,1,0,0,20250806,20250813
1111100-43,1,1,1,1,1,0,0,20250807,20250808
1111100-44,1,1,1,1,1,0,0,20250801,20250813
1111111-27,1,1,1,1,1,1,1,20250801,20250813
1111100-45,1,1,1,1,1,0,0,20250806,20250813
1111100-46,1,1,1,1,1,0,0,20250731,20250813
1111100-47,1,1,1,1,1,0,0,20250801,20250813
1111100-48,1,1,1,1,1,0,0,20250801,20250813
1111100-49,1,1,1,1,1,0,0,20250731,20250813
1111100-50,1,1,1,1,1,0,0,20250804,20250808
1111100-51,1,1,1,1,1,0,0,20250731,20250813
0000100-1,0,0,0,0,1,0,0,20250801,20250808
1111100-52,1,1,1,1,1,0,0,20250731,20250813
0000011-10,0,0,0,0,0,1,1,20250802,20250809
1111100-53,1,1,1,1,1,0,0,20250731,20250813
1111100-54,1,1,1,1,1,0,0,20250731,20250813
1111100-55,1,1,1,1,1,0,0,20250731,20250813
0000011_TR1,0,0,0,0,0,1,1,20241215,20251213
0000011_TR2,0,0,0,0,0,1,1,20250719,20250823
1111111_TR1,1,1,1,1,1,1,1,20241215,20251213
1111111_TR2,1,1,1,1,1,1,1,20250714,20250823
1111100_TR1,1,1,1,1,1,0,0,20241216,20251212
1111100_TR2,1,1,1,1,1,0,0,20250714,20250822
1111111_TR3,1,1,1,1,1,1,1,20241215,20251213
1111100_TR3,1,1,1,1,1,0,0,20241216,20251212
1111101_TR1,1,1,1,1,1,0,1,20241215,20251212
1010000_TR1,1,0,1,0,0,0,0,20250813,20250820
1111110_TR1,1,1,1,1,1,1,0,20241216,20251213
0000000_TR1,0,0,0,0,0,0,0,20241215,20251213
1111111_TR4,1,1,1,1,1,1,1,20250701,20251212
1010010_TR1,1,0,1,0,0,1,0,20250809,20250820
1111101_TR2,1,1,1,1,1,0,1,20241215,20251212
1111111_TR5,1,1,1,1,1,1,1,20241215,20251213
1111111_TR6,1,1,1,1,1,1,1,20241215,20251213
1111111_TR7,1,1,1,1,1,1,1,20241215,20251213
1111111_TR8,1,1,1,1,1,1,1,20241215,20251213
1111111_TR9,1,1,1,1,1,1,1,20241215,20251213
1111100_TR4,1,1,1,1,1,0,0,20241216,20251212
1111111_TR10,1,1,1,1,1,1,1,20241215,20251213
0000010_TR1,0,0,0,0,0,1,0,20241221,20251213
1111110_TR2,1,1,1,1,1,1,0,20241216,20251213
0000001_TR1,0,0,0,0,0,0,1,20241215,20251207
0000011_TR3,0,0,0,0,0,1,1,20241215,20251213
1111101_TR3,1,1,1,1,1,0,1,20241215,20251212
1111111_TR11,1,1,1,1,1,1,1,20241215,20251213
0100000_TR1,0,1,0,0,0,0,0,20250805,20250805
1111111_TR12,1,1,1,1,1,1,1,20241215,20251213
0000011_TR4,0,0,0,0,0,1,1,20241215,20251213
0000000_TR2,0,0,0,0,0,0,0,20241215,20251213
1111111_TR13,1,1,1,1,1,1,1,20250308,20251212
1111111_TR14,1,1,1,1,1,1,1,20250518,20251213
0000011_TR5,0,0,0,0,0,1,1,20250802,20250803
1111111_TR15,1,1,1,1,1,1,1,20250519,20251213
1111111_TR16,1,1,1,1,1,1,1,20250518,20251213
1000011_TR1,1,0,0,0,0,1,1,20250802,20250804
1111100_TR5,1,1,1,1,1,0,0,20250519,20251212
1000000_TR1,1,0,0,0,0,0,0,20250804,20250804
0000010_TR2,0,0,0,0,0,1,0,20250802,20250802
0000001_TR2,0,0,0,0,0,0,1,20250803,20250803
1111111_TR17,1,1,1,1,1,1,1,20250518,20251213
1111111_TR18,1,1,1,1,1,1,1,20241215,20251213
1111111_TR19,1,1,1,1,1,1,1,20241215,20251213
1111111_TR20,1,1,1,1,1,1,1,20250708,20250811
1111110_TR3,1,1,1,1,1,1,0,20241216,20251213
1111110_TR4,1,1,1,1,1,1,0,20250708,20250811
1111111_TR21,1,1,1,1,1,1,1,20241215,20251213
1111111_TR22,1,1,1,1,1,1,1,20250708,20250811
1111111_TR23,1,1,1,1,1,1,1,20250708,20250811
1111111_TR24,1,1,1,1,1,1,1,20241215,20251213
1111111_TR25,1,1,1,1,1,1,1,20250708,20250810
1111111_TR26,1,1,1,1,1,1,1,20241215,20251213
1111111_TR27,1,1,1,1,1,1,1,20241215,20251213
1111111_TR28,1,1,1,1,1,1,1,20241215,20250811
0111000_TR1,0,1,1,1,0,0,0,20250812,20250814
1111111_TR29,1,1,1,1,1,1,1,20241215,20250811
1111111_TR30,1,1,1,1,1,1,1,20241215,20250811
1111111_TR31,1,1,1,1,1,1,1,20241215,20250811
1111111_TR32,1,1,1,1,1,1,1,20241215,20250814
1111100_TR6,1,1,1,1,1,0,0,20241216,20250814
1111111_TR33,1,1,1,1,1,1,1,20241215,20250814
1111111_TR34,1,1,1,1,1,1,1,20241215,20250814
1111111_TR35,1,1,1,1,1,1,1,20250815,20251213
0000001_TR3,0,0,0,0,0,0,1,20241215,20251207
0000010_TR3,0,0,0,0,0,1,0,20241221,20251213
1111110_TR5,1,1,1,1,1,1,0,20241216,20251213
0011000_TR1,0,0,1,1,0,0,0,20250721,20250731
1111101_TR4,1,1,1,1,1,0,1,20241215,20251212
0011000_TR2,0,0,1,1,0,0,0,20250720,20250731
1111111_TR36,1,1,1,1,1,1,1,20241215,20251213
1111111_TR37,1,1,1,1,1,1,1,20241215,20251213
0011000_TR3,0,0,1,1,0,0,0,20250722,20250731
1111110_TR6,1,1,1,1,1,1,0,20241216,20251213
0000001_TR4,0,0,0,0,0,0,1,20241215,20251207
0011000_TR4,0,0,1,1,0,0,0,20250722,20250731
1000010_TR1,1,0,0,0,0,1,0,20250802,20250804
1111111_TR38,1,1,1,1,1,1,1,20241215,20251213
1111101_TR5,1,1,1,1,1,0,1,20241215,20251212
0011000_TR5,0,0,1,1,0,0,0,20250722,20250731
1111111_TR39,1,1,1,1,1,1,1,20241215,20251213
1111100_TR7,1,1,1,1,1,0,0,20241216,20251212
0011000_TR6,0,0,1,1,0,0,0,20250722,20250731
0000001_TR5,0,0,0,0,0,0,1,20241215,20251207
1000000_TR2,1,0,0,0,0,0,0,20241216,20251208
0111100_TR1,0,1,1,1,1,0,0,20241217,20251212
0011000_TR7,0,0,1,1,0,0,0,20250722,20250731
1111111_TR40,1,1,1,1,1,1,1,20241215,20251213
1111100_TR8,1,1,1,1,1,0,0,20250411,20250814
0000001_TR6,0,0,0,0,0,0,1,20241215,20251207
1111110_TR7,1,1,1,1,1,1,0,20250408,20250814
0111100_TR2,0,1,1,1,1,0,0,20250815,20250909
0000011_TR6,0,0,0,0,0,1,1,20250412,20250810
1111111_TR41,1,1,1,1,1,1,1,20241215,20251213
1111111_TR42,1,1,1,1,1,1,1,20250408,20250814
0111000_TR2,0,1,1,1,0,0,0,20250910,20250925
1111111_TR43,1,1,1,1,1,1,1,20250426,20250814
1111100_TR9,1,1,1,1,1,0,0,20241216,20251212
1111111_TR44,1,1,1,1,1,1,1,20250412,20250814
0111010_TR1,0,1,1,1,0,1,0,20250910,20250927
1111111_TR45,1,1,1,1,1,1,1,20250426,20250814
1111011_TR1,1,1,1,1,0,1,1,20241215,20251213
1111000_TR1,1,1,1,1,0,0,0,20241216,20251211
1111000_TR2,1,1,1,1,0,0,0,20241216,20251211
0000010_TR4,0,0,0,0,0,1,0,20241221,20251213
1111101_TR6,1,1,1,1,1,0,1,20250408,20250814
1111010_TR1,1,1,1,1,0,1,0,20241223,20250814
0000101_TR1,0,0,0,0,1,0,1,20250413,20250810
1111100_TR10,1,1,1,1,1,0,0,20250408,20250814
1111100_TR11,1,1,1,1,1,0,0,20250411,20250814
0000100_TR1,0,0,0,0,1,0,0,20250815,20250905
0000011_TR7,0,0,0,0,0,1,1,20250412,20250810
1111100_TR12,1,1,1,1,1,0,0,20250616,20251212
0001100_TR1,0,0,0,1,1,0,0,20250828,20250829
1111111_TR46,1,1,1,1,1,1,1,20250615,20251213
1111111_TR47,1,1,1,1,1,1,1,20250902,20250912
0001111_TR1,0,0,0,1,1,1,1,20250828,20250831
0000011_TR8,0,0,0,0,0,1,1,20250615,20251213
0000011_TR9,0,0,0,0,0,1,1,20250830,20250831
0000011_TR10,0,0,0,0,0,1,1,20250615,20251213
0000011_TR11,0,0,0,0,0,1,1,20250906,20250907
1111111_TR48,1,1,1,1,1,1,1,20250615,20251213
0000001_TR7,0,0,0,0,0,0,1,20250907,20250907
0000110_TR1,0,0,0,0,1,1,0,20250905,20250912
0011110_TR1,0,0,1,1,1,1,0,20250827,20250830
0000001_TR8,0,0,0,0,0,0,1,20250831,20250831
1111000_TR3,1,1,1,1,0,0,0,20250902,20250911
1111111_TR49,1,1,1,1,1,1,1,20250615,20251213
1111111_TR50,1,1,1,1,1,1,1,20250902,20250911
0011111_TR1,0,0,1,1,1,1,1,20250827,20250831
1111111_TR51,1,1,1,1,1,1,1,20250615,20251213
1111110_TR8,1,1,1,1,1,1,0,20250616,20251213
0000001_TR9,0,0,0,0,0,0,1,20250615,20251207
1111100_TR13,1,1,1,1,1,0,0,20241216,20251212
0000011_TR12,0,0,0,0,0,1,1,20241215,20251213
0111100_TR3,0,1,1,1,1,0,0,20241216,20251212
0000011_TR13,0,0,0,0,0,1,1,20241215,20251213
0111111_TR1,0,1,1,1,1,1,1,20241215,20251213
0000011_TR14,0,0,0,0,0,1,1,20241215,20251213
0000100_TR2,0,0,0,0,1,0,0,20241220,20251212
0111000_TR3,0,1,1,1,0,0,0,20241216,20251211
0111111_TR2,0,1,1,1,1,1,1,20241215,20251213
0000100_TR3,0,0,0,0,1,0,0,20241220,20251212
0000011_TR15,0,0,0,0,0,1,1,20241215,20251213
0111100_TR4,0,1,1,1,1,0,0,20241216,20251212
0000011_TR16,0,0,0,0,0,1,1,20250329,20251028
1111100_TR14,1,1,1,1,1,0,0,20250331,20251027
0011001_TR1,0,0,1,1,0,0,1,20250601,20250803
1111100_TR15,1,1,1,1,1,0,0,20250801,20250807
0000011_TR17,0,0,0,0,0,1,1,20250329,20251028
0011000_TR8,0,0,1,1,0,0,0,20250602,20250731
1111111_TR52,1,1,1,1,1,1,1,20250329,20251028
1111111_TR53,1,1,1,1,1,1,1,20250329,20251028
0011000_TR9,0,0,1,1,0,0,0,20250601,20250731
1111101_TR7,1,1,1,1,1,0,1,20250801,20250807
1111110_TR9,1,1,1,1,1,1,0,20250801,20250807
1111000_TR4,1,1,1,1,0,0,0,20250331,20251027
0000100_TR4,0,0,0,0,1,0,0,20250404,20251024
0000011_TR18,0,0,0,0,0,1,1,20250531,20250803
0000100_TR5,0,0,0,0,1,0,0,20250801,20250801
1111111_TR54,1,1,1,1,1,1,1,20250329,20251028
1111010_TR2,1,1,1,1,0,1,0,20250531,20250806
0000101_TR2,0,0,0,0,1,0,1,20250801,20250803
0000010_TR5,0,0,0,0,0,1,0,20250531,20250802
1111111_TR55,1,1,1,1,1,1,1,20250329,20251028
0001000_TR1,0,0,0,1,0,0,0,20250807,20250807
1111011_TR2,1,1,1,1,0,1,1,20250517,20250806
0000100_TR6,0,0,0,0,1,0,0,20250516,20250801
1111111_TR56,1,1,1,1,1,1,1,20250801,20250807
1111100_TR16,1,1,1,1,1,0,0,20250331,20251027
1111011_TR3,1,1,1,1,0,1,1,20250531,20250807
1111110_TR10,1,1,1,1,1,1,0,20250804,20250814
0011110_TR2,0,0,1,1,1,1,0,20241216,20250802
1111111_TR57,1,1,1,1,1,1,1,20250804,20250814
0011111_TR2,0,0,1,1,1,1,1,20241215,20250803
0011111_TR3,0,0,1,1,1,1,1,20241215,20250803
0011111_TR4,0,0,1,1,1,1,1,20241215,20250803
0011111_TR5,0,0,1,1,1,1,1,20241215,20250803
0000001_TR10,0,0,0,0,0,0,1,20250810,20250810
0000011_TR19,0,0,0,0,0,1,1,20250628,20250831
0000011_TR20,0,0,0,0,0,1,1,20250322,20251028
0000011_TR21,0,0,0,0,0,1,1,20250322,20251028
0000011_TR22,0,0,0,0,0,1,1,20250322,20251028
0000001_TR11,0,0,0,0,0,0,1,20250607,20250803
0000010_TR6,0,0,0,0,0,1,0,20250322,20251028
0000001_TR12,0,0,0,0,0,0,1,20250323,20251026
0000001_TR13,0,0,0,0,0,0,1,20250323,20251026
1111100_TR17,1,1,1,1,1,0,0,20250317,20251212
1111111_TR58,1,1,1,1,1,1,1,20241215,20251213
1111100_TR18,1,1,1,1,1,0,0,20241216,20251212
0011100_TR1,0,0,1,1,1,0,0,20250630,20250801
1111100_TR19,1,1,1,1,1,0,0,20250804,20251212
0011100_TR2,0,0,1,1,1,0,0,20250616,20250801
1111100_TR20,1,1,1,1,1,0,0,20250120,20250829
1111100_TR21,1,1,1,1,1,0,0,20241216,20251212
0011100_TR3,0,0,1,1,1,0,0,20250728,20250801
1111100_TR22,1,1,1,1,1,0,0,20241216,20250828
1111100_TR23,1,1,1,1,1,0,0,20250616,20251212
1111100_TR24,1,1,1,1,1,0,0,20241227,20250829
1111100_TR25,1,1,1,1,1,0,0,20250616,20251212
0000011_TR23,0,0,0,0,0,1,1,20241215,20251213
1111100_TR26,1,1,1,1,1,0,0,20250804,20250814
0011100_TR4,0,0,1,1,1,0,0,20241216,20250801
1111111_TR59,1,1,1,1,1,1,1,20250804,20251213
0000010_TR7,0,0,0,0,0,1,0,20250809,20250809
1111101_TR8,1,1,1,1,1,0,1,20250804,20250814
0011101_TR1,0,0,1,1,1,0,1,20241215,20250803
0000011_TR24,0,0,0,0,0,1,1,20250809,20250810
0011100_TR5,0,0,1,1,1,0,0,20241216,20250801
0000001_TR14,0,0,0,0,0,0,1,20250323,20251026
0000010_TR8,0,0,0,0,0,1,0,20250322,20251028
1111110_TR11,1,1,1,1,1,1,0,20241216,20251213
0000001_TR15,0,0,0,0,0,0,1,20241215,20251207
0000001_TR16,0,0,0,0,0,0,1,20250629,20250824
1111110_TR12,1,1,1,1,1,1,0,20250628,20250823
1111100_TR27,1,1,1,1,1,0,0,20241216,20251212
1111100_TR28,1,1,1,1,1,0,0,20250630,20250822
0000011_TR25,0,0,0,0,0,1,1,20250615,20251213
0000011_TR26,0,0,0,0,0,1,1,20250628,20250824
1111100_TR29,1,1,1,1,1,0,0,20250630,20250822
0010000_TR1,0,0,1,0,0,0,0,20250728,20250730
0000011_TR27,0,0,0,0,0,1,1,20241215,20251213
1111111_TR60,1,1,1,1,1,1,1,20241215,20251213
1111111_TR61,1,1,1,1,1,1,1,20250628,20250824
1111100_TR30,1,1,1,1,1,0,0,20250616,20251212
1111111_TR62,1,1,1,1,1,1,1,20241215,20251213
1111111_TR63,1,1,1,1,1,1,1,20250628,20250824
0000011_TR28,0,0,0,0,0,1,1,20250426,20250928
0000011_TR29,0,0,0,0,0,1,1,20241215,20251213
1111100_TR31,1,1,1,1,1,0,0,20250630,20250814
1111100_TR32,1,1,1,1,1,0,0,20250901,20251212
1111100_TR33,1,1,1,1,1,0,0,20250815,20250829
1111100_TR34,1,1,1,1,1,0,0,20250825,20250829
1111100_TR35,1,1,1,1,1,0,0,20250815,20250822
1111100_TR36,1,1,1,1,1,0,0,20241216,20250829
0000011_TR30,0,0,0,0,0,1,1,20241215,20251213
1111100_TR37,1,1,1,1,1,0,0,20250310,20250829
1111100_TR38,1,1,1,1,1,0,0,20250310,20251212
1111111_TR64,1,1,1,1,1,1,1,20241214,20251212
1000100_TR1,1,0,0,0,1,0,0,20250801,20250804
1111111_TR65,1,1,1,1,1,1,1,20241215,20250831
1111111_TR66,1,1,1,1,1,1,1,20250901,20251213
1111111_TR67,1,1,1,1,1,1,1,20241215,20251213
1111111_TR68,1,1,1,1,1,1,1,20241215,20250830
1111111_TR69,1,1,1,1,1,1,1,20250831,20251213
1111110_TR13,1,1,1,1,1,1,0,20241216,20251213
1111111_TR70,1,1,1,1,1,1,1,20241215,20251213
1111100_TR39,1,1,1,1,1,0,0,20250519,20251212
0000011_TR31,0,0,0,0,0,1,1,20241215,20251213
1111101_TR9,1,1,1,1,1,0,1,20241215,20251212
1111100_TR40,1,1,1,1,1,0,0,20250428,20250829
1111111_TR71,1,1,1,1,1,1,1,20250426,20250928
1111100_TR41,1,1,1,1,1,0,0,20241216,20251212
1111100_TR42,1,1,1,1,1,0,0,20241216,20251212
1111100_TR43,1,1,1,1,1,0,0,20241223,20250829
0011111_TR6,0,0,1,1,1,1,1,20241215,20250810
1111111_TR72,1,1,1,1,1,1,1,20250630,20250814
1111111_TR73,1,1,1,1,1,1,1,20250816,20251213
1111111_TR74,1,1,1,1,1,1,1,20241214,20250813
1100000_TR1,1,1,0,0,0,0,0,20250723,20250818
1111111_TR75,1,1,1,1,1,1,1,20250814,20251212
0000011_TR32,0,0,0,0,0,1,1,20241215,20250810
0000011_TR33,0,0,0,0,0,1,1,20250816,20251213
1111110_TR14,1,1,1,1,1,1,0,20241216,20250814
1111110_TR15,1,1,1,1,1,1,0,20250815,20251213
1111100_TR44,1,1,1,1,1,0,0,20250630,20250829
0000011_TR34,0,0,0,0,0,1,1,20241215,20250810
0000000_TR3,0,0,0,0,0,0,0,20241216,20250929
1111100_TR45,1,1,1,1,1,0,0,20250901,20251212
1111111_TR76,1,1,1,1,1,1,1,20241215,20250814
1111110_TR16,1,1,1,1,1,1,0,20241215,20250814
1000001_TR1,1,0,0,0,0,0,1,20250722,20250811
0000001_TR17,0,0,0,0,0,0,1,20250817,20250817
1111111_TR77,1,1,1,1,1,1,1,20250815,20251213
1111100_TR46,1,1,1,1,1,0,0,20241216,20250814
1111100_TR47,1,1,1,1,1,0,0,20250815,20251212
1111111_TR78,1,1,1,1,1,1,1,20241215,20250814
1000001_TR2,1,0,0,0,0,0,1,20250722,20250817
1111111_TR79,1,1,1,1,1,1,1,20241215,20251213
0011000_TR10,0,0,1,1,0,0,0,20250720,20250731
0000011_TR35,0,0,0,0,0,1,1,20250125,20250824
0000011_TR36,0,0,0,0,0,1,1,20250830,20251213
0000011_TR37,0,0,0,0,0,1,1,20241215,20251213
0011000_TR11,0,0,1,1,0,0,0,20250721,20250731
0000010_TR9,0,0,0,0,0,1,0,20250125,20250823
0000001_TR18,0,0,0,0,0,0,1,20250126,20250824
0000010_TR10,0,0,0,0,0,1,0,20250830,20251213
0000001_TR19,0,0,0,0,0,0,1,20250831,20251207
1111100_TR48,1,1,1,1,1,0,0,20241215,20251212
1111111_TR80,1,1,1,1,1,1,1,20241215,20251213
1111111_TR81,1,1,1,1,1,1,1,20241215,20251213
0011000_TR12,0,0,1,1,0,0,0,20250531,20250731
1111111_TR82,1,1,1,1,1,1,1,20241215,20251213
1111100_TR49,1,1,1,1,1,0,0,20241216,20251212
0000011_TR38,0,0,0,0,0,1,1,20241215,20251213
0000011_TR39,0,0,0,0,0,1,1,20241215,20251213
1111100_TR50,1,1,1,1,1,0,0,20241216,20251212
1111111_TR83,1,1,1,1,1,1,1,20241215,20251213
1110111_TR1,1,1,1,0,1,1,1,20250801,20250806
0000001_TR20,0,0,0,0,0,0,1,20241215,20251207
1111111_TR84,1,1,1,1,1,1,1,20241215,20251213
0000011_TR40,0,0,0,0,0,1,1,20250322,20251028
1111111_TR85,1,1,1,1,1,1,1,20241216,20251212
0000011_TR41,0,0,0,0,0,1,1,20241215,20251213
1111111_TR86,1,1,1,1,1,1,1,20241215,20251213
0000011_TR42,0,0,0,0,0,1,1,20241215,20251213
1111111_TR87,1,1,1,1,1,1,1,20241215,20251213
1111111_TR88,1,1,1,1,1,1,1,20241215,20251213
0000100_TR7,0,0,0,0,1,0,0,20241220,20251212
1111100_TR51,1,1,1,1,1,0,0,20250210,20251212
0000011_TR43,0,0,0,0,0,1,1,20241215,20251213
0000011_TR44,0,0,0,0,0,1,1,20241215,20251213
1111100_TR52,1,1,1,1,1,0,0,20241216,20251212
1111100_TR53,1,1,1,1,1,0,0,20250526,20250819
0011100_TR6,0,0,1,1,1,0,0,20250303,20250801
0000011_TR45,0,0,0,0,0,1,1,20250802,20251213
0011100_TR7,0,0,1,1,1,0,0,20250526,20250801
1111111_TR89,1,1,1,1,1,1,1,20250820,20251213
1111111_TR90,1,1,1,1,1,1,1,20250802,20250819
0000000_TR4,0,0,0,0,0,0,0,20241215,20251213
0000011_TR46,0,0,0,0,0,1,1,20250823,20251207
0000011_TR47,0,0,0,0,0,1,1,20250802,20250817
0000011_TR48,0,0,0,0,0,1,1,20241215,20251213
0000011_TR49,0,0,0,0,0,1,1,20250531,20250817
1111100_TR54,1,1,1,1,1,0,0,20250820,20251212
1111100_TR55,1,1,1,1,1,0,0,20250804,20250819
0000000_TR5,0,0,0,0,0,0,0,20241215,20251213
0011100_TR8,0,0,1,1,1,0,0,20250526,20250801
1111111_TR91,1,1,1,1,1,1,1,20250820,20251212
0011000_TR13,0,0,1,1,0,0,0,20250526,20250731
0000100_TR8,0,0,0,0,1,0,0,20250530,20250801
0000010_TR11,0,0,0,0,0,1,0,20251213,20251213
0000010_TR12,0,0,0,0,0,1,0,20250802,20251206
0000101_TR3,0,0,0,0,1,0,1,20250822,20251212
1111000_TR5,1,1,1,1,0,0,0,20250820,20251211
0000101_TR4,0,0,0,0,1,0,1,20250803,20250817
1111000_TR6,1,1,1,1,0,0,0,20250804,20250819
0011100_TR9,0,0,1,1,1,0,0,20250303,20250801
1111101_TR10,1,1,1,1,1,0,1,20250803,20251212
0000010_TR13,0,0,0,0,0,1,0,20250802,20251213
1111100_TR56,1,1,1,1,1,0,0,20241216,20251212
1111111_TR92,1,1,1,1,1,1,1,20241215,20251213
0000010_TR14,0,0,0,0,0,1,0,20241221,20251213
0000011_TR50,0,0,0,0,0,1,1,20241215,20251213
0000011_TR51,0,0,0,0,0,1,1,20250104,20251213
1111100_TR57,1,1,1,1,1,0,0,20250616,20251212
1111111_TR93,1,1,1,1,1,1,1,20250615,20251213
0000011_TR52,0,0,0,0,0,1,1,20250615,20251213
0000011_TR53,0,0,0,0,0,1,1,20241215,20251213
1111100_TR58,1,1,1,1,1,0,0,20241215,20251212
0000011_TR54,0,0,0,0,0,1,1,20241221,20251213
0000011_TR55,0,0,0,0,0,1,1,20241221,20251213
1111100_TR59,1,1,1,1,1,0,0,20241216,20251212
1111000_TR7,1,1,1,1,0,0,0,20250812,20250905
1111100_TR60,1,1,1,1,1,0,0,20250414,20251212
0000010_TR15,0,0,0,0,0,1,0,20250315,20251213
0000011_TR56,0,0,0,0,0,1,1,20250315,20251213
1111101_TR11,1,1,1,1,1,0,1,20250615,20251212
1111111_TR94,1,1,1,1,1,1,1,20250315,20251213
0000010_TR16,0,0,0,0,0,1,0,20241221,20251213
1111100_TR61,1,1,1,1,1,0,0,20241216,20251212
1111100_TR62,1,1,1,1,1,0,0,20250606,20250829
0000011_TR57,0,0,0,0,0,1,1,20241215,20251213
0000001_TR21,0,0,0,0,0,0,1,20250322,20251028
0000100_TR9,0,0,0,0,1,0,0,20250321,20251027
1111100_TR63,1,1,1,1,1,0,0,20241216,20251212
0000011_TR58,0,0,0,0,0,1,1,20241215,20251213
0000100_TR10,0,0,0,0,1,0,0,20250606,20250829
1111000_TR8,1,1,1,1,0,0,0,20250630,20250828
0000100_TR11,0,0,0,0,1,0,0,20250321,20251027
1111100_TR64,1,1,1,1,1,0,0,20241216,20251212
1111100_TR65,1,1,1,1,1,0,0,20241216,20251212
1111100_TR66,1,1,1,1,1,0,0,20250519,20250930
1111100_TR67,1,1,1,1,1,0,0,20241231,20250829
1111100_TR68,1,1,1,1,1,0,0,20241216,20251212
0000011_TR59,0,0,0,0,0,1,1,20250104,20251213
0000011_TR60,0,0,0,0,0,1,1,20241215,20251213
0000010_TR17,0,0,0,0,0,1,0,20241221,20251213
0000001_TR22,0,0,0,0,0,0,1,20241215,20251207
1111111_TR95,1,1,1,1,1,1,1,20241215,20251213
0011100_TR10,0,0,1,1,1,0,0,20250726,20250801
1111111_TR96,1,1,1,1,1,1,1,20241215,20251213
1111111_TR97,1,1,1,1,1,1,1,20241215,20251213
1111111_TR98,1,1,1,1,1,1,1,20241215,20251213
1111111_TR99,1,1,1,1,1,1,1,20241215,20251213
1111111_TR100,1,1,1,1,1,1,1,20250308,20251212
1111111_TR101,1,1,1,1,1,1,1,20250707,20250831
1111100_TR69,1,1,1,1,1,0,0,20250310,20251212
1111100_TR70,1,1,1,1,1,0,0,20250708,20250901
0011000_TR14,0,0,1,1,0,0,0,20241216,20250731
1111100_TR71,1,1,1,1,1,0,0,20250801,20251212
1111111_TR102,1,1,1,1,1,1,1,20250309,20251213
1111111_TR103,1,1,1,1,1,1,1,20250708,20250901
0000011_TR61,0,0,0,0,0,1,1,20250809,20250824
1111111_TR104,1,1,1,1,1,1,1,20241215,20251213
1111111_TR105,1,1,1,1,1,1,1,20250801,20251213
0011000_TR15,0,0,1,1,0,0,0,20241215,20250731
1111111_TR106,1,1,1,1,1,1,1,20250801,20251213
0011000_TR16,0,0,1,1,0,0,0,20241216,20250731
0011000_TR17,0,0,1,1,0,0,0,20241216,20250731
0011000_TR18,0,0,1,1,0,0,0,20241216,20250731
1111101_TR12,1,1,1,1,1,0,1,20250801,20251212
0000011_TR62,0,0,0,0,0,1,1,20250802,20251213
0000010_TR18,0,0,0,0,0,1,0,20250809,20250823
0000001_TR23,0,0,0,0,0,0,1,20250810,20250824
0011000_TR19,0,0,1,1,0,0,0,20241215,20250731
0011000_TR20,0,0,1,1,0,0,0,20241215,20250731
0011000_TR21,0,0,1,1,0,0,0,20241216,20250731
0011000_TR22,0,0,1,1,0,0,0,20241215,20250731
1111111_TR107,1,1,1,1,1,1,1,20241215,20251213
0000011_TR63,0,0,0,0,0,1,1,20250810,20250824
1111111_TR108,1,1,1,1,1,1,1,20250707,20250831
1111111_TR109,1,1,1,1,1,1,1,20250801,20251213
1111111_TR110,1,1,1,1,1,1,1,20241215,20251213
1111111_TR111,1,1,1,1,1,1,1,20241215,20251213
1111111_TR112,1,1,1,1,1,1,1,20241215,20251213
0000000_TR6,0,0,0,0,0,0,0,20250720,20250824
1111111_TR113,1,1,1,1,1,1,1,20241215,20251213
0000000_TR7,0,0,0,0,0,0,0,20250719,20250824
1111111_TR114,1,1,1,1,1,1,1,20241215,20251213
0000000_TR8,0,0,0,0,0,0,0,20250719,20250823
0000011_TR64,0,0,0,0,0,1,1,20250524,20250831
0000011_TR65,0,0,0,0,0,1,1,20241215,20251213
0000011_TR66,0,0,0,0,0,1,1,20241215,20251213
0000011_TR67,0,0,0,0,0,1,1,20241215,20251213
0000011_TR68,0,0,0,0,0,1,1,20241215,20251213
0000011_TR69,0,0,0,0,0,1,1,20241215,20251213
0000000_TR9,0,0,0,0,0,0,0,20250719,20250824
0000011_TR70,0,0,0,0,0,1,1,20241215,20251213
0000011_TR71,0,0,0,0,0,1,1,20241215,20251213
1111100_TR72,1,1,1,1,1,0,0,20250630,20250829
1111100_TR73,1,1,1,1,1,0,0,20250630,20250814
1111100_TR74,1,1,1,1,1,0,0,20250310,20251212
1111100_TR75,1,1,1,1,1,0,0,20250701,20250829
0000011_TR72,0,0,0,0,0,1,1,20241221,20251213
1111010_TR3,1,1,1,1,0,1,0,20241216,20251213
0000100_TR12,0,0,0,0,1,0,0,20241220,20251212
0000011_TR73,0,0,0,0,0,1,1,20241215,20251213
1111111_TR115,1,1,1,1,1,1,1,20241214,20251212
1111100_TR76,1,1,1,1,1,0,0,20250120,20251212
1111100_TR77,1,1,1,1,1,0,0,20250120,20251212
1111111_TR116,1,1,1,1,1,1,1,20241215,20251213
1111100_TR78,1,1,1,1,1,0,0,20241216,20251212
0000011_TR74,0,0,0,0,0,1,1,20241215,20251213
1111111_TR117,1,1,1,1,1,1,1,20241215,20251213
1111111_TR118,1,1,1,1,1,1,1,20241215,20251213
1111111_TR119,1,1,1,1,1,1,1,20241215,20251213
1111100_TR79,1,1,1,1,1,0,0,20241216,20251212
1111111_TR120,1,1,1,1,1,1,1,20241215,20251213
0011100_TR11,0,0,1,1,1,0,0,20250730,20250801
1111111_TR121,1,1,1,1,1,1,1,20241215,20251213
1111111_TR122,1,1,1,1,1,1,1,20241215,20251213
0000100_TR13,0,0,0,0,1,0,0,20241220,20250808
1111011_TR4,1,1,1,1,0,1,1,20241214,20251211
0000100_TR14,0,0,0,0,1,0,0,20250815,20251212
0000011_TR75,0,0,0,0,0,1,1,20250621,20250810
1111111_TR123,1,1,1,1,1,1,1,20250621,20250814
0000011_TR76,0,0,0,0,0,1,1,20250906,20251213
0000011_TR77,0,0,0,0,0,1,1,20250816,20250831
0000011_TR78,0,0,0,0,0,1,1,20241215,20250810
1111111_TR124,1,1,1,1,1,1,1,20241215,20250814
1111110_TR17,1,1,1,1,1,1,0,20250621,20250814
0000011_TR79,0,0,0,0,0,1,1,20250816,20250831
0000011_TR80,0,0,0,0,0,1,1,20250621,20250809
1111100_TR80,1,1,1,1,1,0,0,20250616,20251212
1111110_TR18,1,1,1,1,1,1,0,20241216,20251213
0000001_TR24,0,0,0,0,0,0,1,20241215,20251207
1111111_TR125,1,1,1,1,1,1,1,20241215,20251213
0000011_TR81,0,0,0,0,0,1,1,20250501,20250928
0000001_TR25,0,0,0,0,0,0,1,20241215,20251207
0000011_TR82,0,0,0,0,0,1,1,20241215,20251213
1111100_TR81,1,1,1,1,1,0,0,20241216,20251212
1111111_TR126,1,1,1,1,1,1,1,20241215,20251213
0000011_TR83,0,0,0,0,0,1,1,20241215,20251213
1111100_TR82,1,1,1,1,1,0,0,20241216,20251212
0000011_TR84,0,0,0,0,0,1,1,20241215,20251213
1111111_TR127,1,1,1,1,1,1,1,20241215,20251213
1111111_TR128,1,1,1,1,1,1,1,20241215,20251213
0000011_TR85,0,0,0,0,0,1,1,20241215,20251213
1111111_TR129,1,1,1,1,1,1,1,20241214,20251212
0011000_TR23,0,0,1,1,0,0,0,20250725,20250731
0000011_TR86,0,0,0,0,0,1,1,20241215,20251213
1111111_TR130,1,1,1,1,1,1,1,20241215,20251213
1111111_TR131,1,1,1,1,1,1,1,20241215,20251213
0000011_TR87,0,0,0,0,0,1,1,20241215,20251213
0000011_TR88,0,0,0,0,0,1,1,20241215,20251213
1111111_TR132,1,1,1,1,1,1,1,20241214,20251212
0011100_TR12,0,0,1,1,1,0,0,20250303,20250801
1111110_TR19,1,1,1,1,1,1,0,20250802,20251213
1111111_TR133,1,1,1,1,1,1,1,20250802,20251213
0000001_TR26,0,0,0,0,0,0,1,20250803,20251207
0011100_TR13,0,0,1,1,1,0,0,20250303,20250801
1111111_TR134,1,1,1,1,1,1,1,20250802,20251213
1111111_TR135,1,1,1,1,1,1,1,20250804,20251212
0000011_TR89,0,0,0,0,0,1,1,20250802,20251213
0000011_TR90,0,0,0,0,0,1,1,20251004,20251123
0000000_TR10,0,0,0,0,0,0,0,20250426,20250823
0000011_TR91,0,0,0,0,0,1,1,20250322,20251028
0000011_TR92,0,0,0,0,0,1,1,20250322,20251028
1111110_TR20,1,1,1,1,1,1,0,20250804,20250814
0011110_TR3,0,0,1,1,1,1,0,20241216,20250802
1111111_TR136,1,1,1,1,1,1,1,20250804,20250813
0011100_TR14,0,0,1,1,1,0,0,20241215,20250801
0000011_TR93,0,0,0,0,0,1,1,20250809,20251213
1111100_TR83,1,1,1,1,1,0,0,20241216,20251212
1111111_TR137,1,1,1,1,1,1,1,20241215,20251213
1111111_TR138,1,1,1,1,1,1,1,20241215,20251213
0000010_TR19,0,0,0,0,0,1,0,20241221,20251213
0000011_TR94,0,0,0,0,0,1,1,20241215,20251213
1111111_TR139,1,1,1,1,1,1,1,20241215,20251213
1111111_TR140,1,1,1,1,1,1,1,20250516,20250806
1111100_TR84,1,1,1,1,1,0,0,20241216,20251212
0000011_TR95,0,0,0,0,0,1,1,20241215,20251213
1111100_TR85,1,1,1,1,1,0,0,20250401,20251212
1111111_TR141,1,1,1,1,1,1,1,20241223,20251213
0000010_TR20,0,0,0,0,0,1,0,20241221,20251213
0000100_TR15,0,0,0,0,1,0,0,20241220,20251212
0000110_TR2,0,0,0,0,1,1,0,20241220,20251213
1111111_TR142,1,1,1,1,1,1,1,20241214,20251212
1111111_TR143,1,1,1,1,1,1,1,20241215,20251213
0000011_TR96,0,0,0,0,0,1,1,20241215,20251213
0000001_TR27,0,0,0,0,0,0,1,20241215,20251207
0000010_TR21,0,0,0,0,0,1,0,20241221,20251213
0000010_TR22,0,0,0,0,0,1,0,20241221,20251213
1111110_TR21,1,1,1,1,1,1,0,20241216,20251213
1111100_TR86,1,1,1,1,1,0,0,20241216,20251212
1111100_TR87,1,1,1,1,1,0,0,20241223,20251029
1111111_TR144,1,1,1,1,1,1,1,20241215,20251213
1111111_TR145,1,1,1,1,1,1,1,20241215,20251213
0000011_TR97,0,0,0,0,0,1,1,20241215,20251213
1111111_TR146,1,1,1,1,1,1,1,20241215,20251213
0000011_TR98,0,0,0,0,0,1,1,20241215,20251213
0000011_TR99,0,0,0,0,0,1,1,20241215,20251213
1111100_TR88,1,1,1,1,1,0,0,20241216,20251212
1111111_TR147,1,1,1,1,1,1,1,20241215,20251213
0111100_TR5,0,1,1,1,1,0,0,20241217,20251212
1000000_TR3,1,0,0,0,0,0,0,20241216,20251208
1111000_TR9,1,1,1,1,0,0,0,20241216,20251211
0000100_TR16,0,0,0,0,1,0,0,20241220,20251212
0000001_TR28,0,0,0,0,0,0,1,20241215,20251207
1111110_TR22,1,1,1,1,1,1,0,20241216,20251213
0011111_TR7,0,0,1,1,1,1,1,20241216,20250803
0000011_TR100,0,0,0,0,0,1,1,20250802,20250810
1111101_TR13,1,1,1,1,1,0,1,20241215,20251212
1111100_TR89,1,1,1,1,1,0,0,20241216,20251212
1111100_TR90,1,1,1,1,1,0,0,20250602,20251212
1111111_TR148,1,1,1,1,1,1,1,20250602,20251213
0000011_TR101,0,0,0,0,0,1,1,20250816,20250824
0000011_TR102,0,0,0,0,0,1,1,20241215,20251213
1111100_TR91,1,1,1,1,1,0,0,20250602,20250829
1111100_TR92,1,1,1,1,1,0,0,20241216,20251212
1111100_TR93,1,1,1,1,1,0,0,20241216,20251212
1111100_TR94,1,1,1,1,1,0,0,20241227,20250829
0000011_TR103,0,0,0,0,0,1,1,20241215,20251213
1111111_TR149,1,1,1,1,1,1,1,20241215,20251213
1111100_TR95,1,1,1,1,1,0,0,20241216,20251212
1111100_TR96,1,1,1,1,1,0,0,20250630,20250829
0111100_TR6,0,1,1,1,1,0,0,20241217,20251212
1111100_TR97,1,1,1,1,1,0,0,20241216,20251212
0000011_TR104,0,0,0,0,0,1,1,20250120,20250810
1111111_TR150,1,1,1,1,1,1,1,20250830,20251213
1111111_TR151,1,1,1,1,1,1,1,20250120,20250814
0000011_TR105,0,0,0,0,0,1,1,20250125,20250810
1111111_TR152,1,1,1,1,1,1,1,20250815,20250829
1111100_TR98,1,1,1,1,1,0,0,20241216,20251212
0011000_TR24,0,0,1,1,0,0,0,20250707,20250731
0000011_TR106,0,0,0,0,0,1,1,20241215,20251213
1111111_TR153,1,1,1,1,1,1,1,20241215,20251213
0011000_TR25,0,0,1,1,0,0,0,20250707,20250731
1111111_TR154,1,1,1,1,1,1,1,20241215,20251213
1111111_TR155,1,1,1,1,1,1,1,20241215,20251213
1111100_TR99,1,1,1,1,1,0,0,20241216,20251212
0000111_TR1,0,0,0,0,1,1,1,20250801,20250803
0011110_TR4,0,0,1,1,1,1,0,20241214,20250802
1111110_TR23,1,1,1,1,1,1,0,20250616,20251213
0000010_TR23,0,0,0,0,0,1,0,20250621,20251213
1111100_TR100,1,1,1,1,1,0,0,20250620,20251212
1111111_TR156,1,1,1,1,1,1,1,20250615,20251213
1111111_TR157,1,1,1,1,1,1,1,20250615,20251213
0000011_TR107,0,0,0,0,0,1,1,20241215,20251213
1111100_TR101,1,1,1,1,1,0,0,20250728,20251212
0000100_TR17,0,0,0,0,1,0,0,20241220,20251212
1111000_TR10,1,1,1,1,0,0,0,20241216,20251211
0000011_TR108,0,0,0,0,0,1,1,20241221,20251213
0000011_TR109,0,0,0,0,0,1,1,20241215,20251213
0000011_TR110,0,0,0,0,0,1,1,20241215,20251213
0000001_TR29,0,0,0,0,0,0,1,20250810,20250817
0000011_TR111,0,0,0,0,0,1,1,20241215,20251213
0000011_TR112,0,0,0,0,0,1,1,20250809,20250817
0000011_TR113,0,0,0,0,0,1,1,20241215,20251213
0000011_TR114,0,0,0,0,0,1,1,20241215,20251213
